HmaxDs = 0.000000
HmaxUB_percent = 1.158938
HmaxUB_real = 3223.783066
FTnetDs = 0.500000
FTnetUB_percent = 2.135995
FTnetUB_real = 5774.065756
TIFgap = 0.400000
LimCIPF = 60.615282
SCIP version 1.1.0 [precision: 8 byte] [memory: block] [mode: optimized] [LP solver: Clp 1.8.2]
Copyright (c) 2002-2008 Konrad-Zuse-Zentrum fuer Informationstechnik Berlin (ZIB)

reading user parameter file </home/fabio/docs/hierarquia/models/scip.set>

read problem <data.N30.I1.s1.cluster1.T5.GL2.W4.TIFgap0.4.mps.gz>
============

original problem has 655 variables (330 bin, 0 int, 0 impl, 325 cont) and 222 constraints

solve problem
=============

presolving:
(round 1) 3 del vars, 3 del conss, 4 chg bounds, 0 chg sides, 64 chg coeffs, 0 upgd conss, 0 impls, 80 clqs
(round 2) 5 del vars, 3 del conss, 4 chg bounds, 1 chg sides, 64 chg coeffs, 0 upgd conss, 0 impls, 80 clqs
(round 3) 5 del vars, 3 del conss, 4 chg bounds, 3 chg sides, 64 chg coeffs, 0 upgd conss, 0 impls, 80 clqs
(round 4) 5 del vars, 4 del conss, 4 chg bounds, 3 chg sides, 64 chg coeffs, 81 upgd conss, 0 impls, 80 clqs
(round 5) 71 del vars, 4 del conss, 4 chg bounds, 3 chg sides, 64 chg coeffs, 81 upgd conss, 1116 impls, 64 clqs
(round 6) 71 del vars, 20 del conss, 4 chg bounds, 3 chg sides, 64 chg coeffs, 81 upgd conss, 1116 impls, 64 clqs
presolving (7 rounds):
 71 deleted vars, 20 deleted constraints, 4 tightened bounds, 0 added holes, 3 changed sides, 64 changed coefficients
 7260 implications, 64 cliques
presolved problem has 584 variables (264 bin, 0 int, 0 impl, 320 cont) and 202 constraints
      1 constraints of type <knapsack>
     64 constraints of type <setppc>
    137 constraints of type <linear>
Presolving Time: 0.14

 time | node  | left  |LP iter| mem |mdpt |frac |vars |cons |ccons|cols |rows |cuts |confs|strbr|  dualbound   | primalbound  |  gap   
  0.2s|     1 |     0 |   198 |1731k|   0 |  87 | 584 | 202 | 202 | 584 | 202 |   0 |   0 |   0 | 2.281115e+01 |      --      |    Inf 
  0.7s|     1 |     0 |  3062 |1886k|   0 |  74 | 584 | 202 | 202 | 584 | 233 |  31 |   0 |   0 | 2.906689e+01 |      --      |    Inf 
  0.9s|     1 |     0 |  3225 |1968k|   0 |  88 | 584 | 202 | 202 | 584 | 262 |  60 |   0 |   0 | 3.923128e+01 |      --      |    Inf 
  1.3s|     1 |     0 |  3312 |2018k|   0 |  84 | 584 | 202 | 202 | 584 | 277 |  75 |   0 |   0 | 4.080268e+01 |      --      |    Inf 
  1.7s|     1 |     0 |  3456 |2038k|   0 |  82 | 584 | 202 | 202 | 584 | 289 |  87 |   0 |   0 | 4.496690e+01 |      --      |    Inf 
  2.1s|     1 |     0 |  3513 |2062k|   0 |  84 | 584 | 202 | 202 | 584 | 299 |  97 |   0 |   0 | 4.554701e+01 |      --      |    Inf 
  2.5s|     1 |     0 |  3567 |2070k|   0 |  83 | 584 | 202 | 202 | 584 | 305 | 103 |   0 |   0 | 4.642952e+01 |      --      |    Inf 
  2.8s|     1 |     0 |  3656 |2082k|   0 |  85 | 584 | 202 | 202 | 584 | 312 | 110 |   0 |   0 | 4.899093e+01 |      --      |    Inf 
  3.2s|     1 |     0 |  3732 |2090k|   0 |  81 | 584 | 202 | 202 | 584 | 316 | 114 |   0 |   0 | 4.943314e+01 |      --      |    Inf 
  3.6s|     1 |     0 |  3818 |2100k|   0 |  94 | 584 | 202 | 202 | 584 | 320 | 118 |   0 |   0 | 5.040668e+01 |      --      |    Inf 
  4.1s|     1 |     0 |  3928 |2111k|   0 |  89 | 584 | 202 | 202 | 584 | 325 | 123 |   0 |   0 | 5.203925e+01 |      --      |    Inf 
  4.1s|     1 |     0 |  3948 |2112k|   0 |  91 | 584 | 202 | 202 | 584 | 317 | 124 |   0 |   0 | 5.207100e+01 |      --      |    Inf 
  5.1s|     1 |     2 |  3980 |2116k|   0 |  91 | 584 | 202 | 202 | 584 | 317 | 124 |   0 |  19 | 5.207100e+01 |      --      |    Inf 

SCIP Status        : problem is solved [infeasible]
Solving Time (sec) : 8.34
Solving Nodes      : 19
Primal Bound       : +1.00000000000000e+20 (0 solutions)
Dual Bound         : +1.00000000000000e+20
Gap                : 0.00 %

primal solution:
================

no solution available

Statistics
==========

SCIP Status        : problem is solved [infeasible]
Solving Time       :       8.34
Original Problem   :
  Problem name     : labtel
  Variables        : 655 (330 binary, 0 integer, 0 implicit integer, 325 continuous)
  Constraints      : 222 initial, 222 maximal
Presolved Problem  :
  Problem name     : t_labtel
  Variables        : 584 (264 binary, 0 integer, 0 implicit integer, 320 continuous)
  Constraints      : 202 initial, 202 maximal
Presolvers         :       Time  FixedVars   AggrVars   ChgTypes  ChgBounds   AddHoles    DelCons   ChgSides   ChgCoefs
  trivial          :       0.00          0          0          0          0          0          0          0          0
  dualfix          :       0.00          0          0          0          0          0          0          0          0
  boundshift       :       0.00          0          0          0          0          0          0          0          0
  inttobinary      :       0.00          0          0          0          0          0          0          0          0
  implics          :       0.00          0          0          0          0          0          0          0          0
  probing          :       0.13         66          0          0          0          0          0          0          0
  knapsack         :       0.00          0          0          0          0          0          0          0          0
  setppc           :       0.01          0          0          0          0          0         16          0          0
  linear           :       0.00          0          5          0          4          0          4          3         64
  logicor          :       0.00          0          0          0          0          0          0          0          0
  root node        :          -        166          -          -        182          -          -          -          -
Constraints        :     Number  #Separate #Propagate    #EnfoLP    #EnfoPS    Cutoffs    DomReds       Cuts      Conss   Children
  integral         :          0          0          0         11          0          1          0          0          0         20
  knapsack         :          1         12        713          0          0          0          0          0          0          0
  setppc           :         64         12        713          0          0          7       1170          0          0          0
  linear           :        137         12        706          0          0          8        214          1          0          0
  logicor          :          0+         0          3          0          0          0          3          0          0          0
  countsols        :          0          0          0          0          0          0          0          0          0          0
Constraint Timings :  TotalTime   Separate  Propagate     EnfoLP     EnfoPS
  integral         :       3.07       0.00       0.00       3.07       0.00
  knapsack         :       0.01       0.01       0.00       0.00       0.00
  setppc           :       0.02       0.00       0.02       0.00       0.00
  linear           :       0.08       0.03       0.05       0.00       0.00
  logicor          :       0.00       0.00       0.00       0.00       0.00
  countsols        :       0.00       0.00       0.00       0.00       0.00
Propagators        :       Time      Calls    Cutoffs    DomReds
  rootredcost      :       0.00          0          0          0
  pseudoobj        :       0.00         65          0          0
Conflict Analysis  :       Time      Calls    Success  Conflicts   Literals    Reconvs ReconvLits   LP Iters
  propagation      :       0.00          4          3          3        1.0          0        0.0          -
  infeasible LP    :       0.00          4          0          0        0.0          0        0.0          0
  bound exceed. LP :       0.00          0          0          0        0.0          0        0.0          0
  strong branching :       0.00          0          0          0        0.0          0        0.0          0
  pseudo solution  :       0.00          0          0          0        0.0          0        0.0          -
  applied globally :          -          -          -          3        1.0          -          -          -
  applied locally  :          -          -          -          0        0.0          -          -          -
Separators         :       Time      Calls    Cutoffs    DomReds       Cuts      Conss
  cut pool         :       0.00         11          -          -         26          -    (maximal pool size: 190)
  redcost          :       0.00         22          0          0          0          0
  impliedbounds    :       0.00         12          0          0          0          0
  intobj           :       0.00          0          0          0          0          0
  gomory           :       0.17         12          0          0          3          0
  strongcg         :       0.13         12          0          0          1          0
  cmir             :       2.16         10          0          0        184          0
  flowcover        :       0.93         10          0          0          8          0
  clique           :       0.01         12          0          0          0          0
  zerohalf         :       0.00          0          0          0          0          0
  mcf              :       0.00          0          0          0          0          0
Pricers            :       Time      Calls       Vars
  problem variables:       0.00          0          0
Branching Rules    :       Time      Calls    Cutoffs    DomReds       Cuts      Conss   Children
  relpscost        :       3.07         11          1          0          0          0         20
  pscost           :       0.00          0          0          0          0          0          0
  inference        :       0.00          0          0          0          0          0          0
  mostinf          :       0.00          0          0          0          0          0          0
  leastinf         :       0.00          0          0          0          0          0          0
  fullstrong       :       0.00          0          0          0          0          0          0
  allfullstrong    :       0.00          0          0          0          0          0          0
  random           :       0.00          0          0          0          0          0          0
Primal Heuristics  :       Time      Calls      Found
  LP solutions     :       0.00          -          0
  pseudo solutions :       0.00          -          0
  oneopt           :       0.00          0          0
  coefdiving       :       0.00          0          0
  pscostdiving     :       0.00          0          0
  fracdiving       :       0.00          0          0
  veclendiving     :       0.00          0          0
  objpscostdiving  :       0.00          0          0
  rootsoldiving    :       0.00          0          0
  linesearchdiving :       0.00          0          0
  simplerounding   :       0.00          0          0
  rounding         :       0.00         22          0
  shifting         :       0.00         12          0
  intshifting      :       0.01          1          0
  fixandinfer      :       0.00          0          0
  feaspump         :       0.29          1          0
  intdiving        :       0.00          0          0
  actconsdiving    :       0.00          0          0
  guideddiving     :       0.00          0          0
  octane           :       0.00          0          0
  rens             :       0.39          1          0
  rins             :       0.00          0          0
  localbranching   :       0.00          0          0
  mutation         :       0.00          0          0
  crossover        :       0.00          0          0
  dins             :       0.00          0          0
LP                 :       Time      Calls Iterations  Iter/call   Iter/sec
  primal LP        :       0.03          0          0       0.00       0.00
  dual LP          :       0.91         26       5711     219.65    6275.82
  barrier LP       :       0.00          0          0       0.00          -
  diving/probing LP:       0.28         37       2737      73.97    9775.00
  strong branching :       3.07        188      21164     112.57    6893.81
    (at root node) :          -         19       2735     143.95          -
  conflict analysis:       0.00          0          0       0.00          -
B&B Tree           :
  number of runs   :          1
  nodes            :         19
  nodes (total)    :         19
  nodes left       :          0
  max depth        :          6
  max depth (total):          6
  backtracks       :          2 (10.5%)
  delayed cutoffs  :          2
  repropagations   :          7 (248 domain reductions, 2 cutoffs)
  avg switch length:       2.42
  switching time   :       0.01
Solution           :
  Solutions found  :          0 (0 improvements)
  Primal Bound     : infeasible
  Dual Bound       :          -
  Gap              :       0.00 %
  Root Dual Bound  : +5.20710031589779e+01
